; benchmark generated from python API
(set-info :status unknown)
(declare-datatypes ((IntState 0)) (((Mk1 (val1 Int)) (Mk2 (val2 Int)))))
 (declare-fun c_main_~i~6 () Int)
(declare-fun c_main_~k~6 () Int)
(declare-fun c_main_~j~6 () Int)
(assert
 (let (($x34 (<= c_main_~i~6 3)))
 (let (($x108 (exists ((main_~i~6_st IntState) (val!55 Int) )(let ((?x56 (val2 main_~i~6_st)))
 (let (($x96 (<= ?x56 4)))
 (let (($x78 (and (<= c_main_~j~6 (+ (* 2 ?x56) 2)) $x96 (<= ?x56 c_main_~k~6))))
 (let (($x52 (not (= main_~i~6_st (Mk1 val!55)))))
 (and $x52 $x78))))))
 ))
 (let (($x116 (<= c_main_~j~6 (+ (* 2 c_main_~i~6) 2))))
 (let (($x106 (<= c_main_~i~6 4)))
 (let (($x85 (<= c_main_~j~6 (+ (* 2 c_main_~i~6) 1))))
 (let (($x75 (exists ((v_nnf_96 Int) )(let (($x115 (<= v_nnf_96 4)))
 (let (($x82 (<= c_main_~j~6 (+ (* 2 v_nnf_96) 2))))
 (and (<= (+ v_nnf_96 2) c_main_~k~6) $x82 $x115))))
 ))
 (and (and $x85 $x106 $x75 $x34) (not (and $x85 $x106 $x116 $x108 $x34))))))))))
(check-sat)
